experiment/data/hgs-res/Vrp-Set-E-n76/Vrp-Set-E-n76-hgs/3.hgs1.tour
Route #1: 73 1 22 64 42 43 41 56 23 63 33
Route #2: 75 30 74 21 61 28 62 2 68
Route #3: 48 47 36 69 71 60 70 20 37 5 29 45
Route #4: 67 34 46 8 52 4
Route #5: 27 15 57 13 54 19 59 14 35 7 26
Route #6: 53 11 66 65 38 10 58
Route #7: 51 3 44 32 9 39 40 17
Route #8: 12 72 31 55 25 50 18 24 49 16 6
Cost 740.655
